NAME : zqloutput/eax-hard-simple-rescaleandround/50-4.tsp
TYPE : TSP
DIMENSION : 50
EDGE_WEIGHT_TYPE : EUC_2D
NODE_COORD_SECTION
1 120068 289010
2 405709 393581
3 479016 144163
4 71311 51464
5 426719 10855
6 360705 332778
7 689017 699347
8 975795 737089
9 542527 239486
10 270456 674773
11 438491 97869
12 950558 841660
13 324933 399800
14 699529 200222
15 509309 349670
16 384978 761550
17 660750 592991
18 271335 462825
19 311028 84121
20 832770 592313
21 365293 741559
22 647468 320927
23 106348 709313
24 543406 458120
25 842648 120048
26 431658 472216
27 198196 559692
28 682523 356782
29 385158 17524
30 341287 363971
31 869359 314841
32 953309 790206
33 482716 233
34 959719 644688
35 484687 855692
36 727960 834199
37 252073 493613
38 117947 811688
39 637409 142838
40 990001 974623
41 182221 855042
42 551673 927478
43 520365 331704
44 108589 969020
45 876776 705809
46 435904 941426
47 95509 884589
48 833986 592642
49 919460 475454
50 572359 187516
EOF
